dataset/medium-72.in
20
60.0
0 19 1.26 1.0
1 18 1.22 1.0
2 17 1.06 1.0
3 16 1.31 1.0
4 15 1.27 1.0
5 14 1.21 1.0
6 13 1.15 1.0
7 12 1.42 1.0
8 11 1.27 1.0
9 10 1.2 1.0
10 9 1.11 1.0
11 8 1.12 1.0
12 7 1.57 1.0
13 6 1.0 1.0
14 5 1.0 1.02
15 4 1.75 1.0
16 3 1.67 1.0
17 2 1.0 1.0
18 1 2.0 1.0
