DpOutput/medium-72.out
84.59
18
16
16
16
15
15
15
15
12
12
12
12
12
12
12
8
8
8
8
8
8
8
8
8
8
8
7
7
7
7
7
7
7
7
7
7
7
7
4
4
4
4
4
4
3
3
3
3
3
3
3
3
3
3
3
3
3
3
3
3
